results/res_prop_muc/res_Cimatti_mathsat_cores/QF_LRA/clocksynchro_3clocks.main_invar.induct.smt.smt2.out
### boolMucExtractionTime 3727476
