results/res_prop_muc/res_Cimatti_mathsat_cores/QF_LRA/clocksynchro_3clocks.main_invar.induct.smt.smt2.res
unsat
( c0
  c1
  c10
  c107
  c108
  c109
  c11
  c110
  c111
  c112
  c113
  c114
  c115
  c12
  c122
  c123
  c124
  c125
  c127
  c128
  c129
  c13
  c130
  c134
  c135
  c136
  c137
  c138
  c139
  c14
  c143
  c144
  c145
  c147
  c148
  c149
  c15
  c150
  c151
  c152
  c153
  c155
  c156
  c157
  c158
  c159
  c16
  c161
  c162
  c163
  c164
  c165
  c166
  c167
  c168
  c17
  c170
  c171
  c172
  c173
  c174
  c175
  c176
  c177
  c178
  c179
  c18
  c181
  c182
  c183
  c184
  c186
  c187
  c19
  c191
  c192
  c193
  c194
  c195
  c197
  c198
  c199
  c2
  c20
  c200
  c202
  c203
  c204
  c205
  c206
  c208
  c209
  c21
  c211
  c212
  c213
  c214
  c215
  c216
  c217
  c218
  c219
  c22
  c220
  c221
  c222
  c223
  c224
  c225
  c226
  c23
  c236
  c237
  c238
  c239
  c24
  c240
  c242
  c243
  c244
  c245
  c247
  c248
  c25
  c252
  c253
  c254
  c255
  c256
  c258
  c259
  c26
  c260
  c261
  c263
  c264
  c265
  c266
  c267
  c269
  c27
  c270
  c272
  c273
  c274
  c275
  c276
  c277
  c278
  c279
  c28
  c280
  c281
  c282
  c283
  c284
  c285
  c286
  c287
  c29
  c297
  c298
  c299
  c30
  c300
  c301
  c307
  c31
  c310
  c314
  c318
  c32
  c322
  c323
  c324
  c325
  c326
  c33
  c332
  c333
  c335
  c336
  c34
  c341
  c344
  c346
  c35
  c354
  c355
  c357
  c358
  c359
  c36
  c360
  c361
  c362
  c363
  c364
  c365
  c366
  c367
  c368
  c369
  c37
  c370
  c371
  c372
  c376
  c38
  c381
  c382
  c383
  c384
  c385
  c386
  c387
  c388
  c389
  c39
  c390
  c391
  c392
  c393
  c394
  c395
  c396
  c397
  c398
  c399
  c4
  c40
  c400
  c401
  c41
  c414
  c42
  c43
  c433
  c434
  c435
  c437
  c438
  c439
  c440
  c441
  c442
  c446
  c447
  c448
  c45
  c450
  c451
  c452
  c453
  c454
  c455
  c456
  c457
  c458
  c46
  c461
  c462
  c465
  c466
  c469
  c47
  c470
  c472
  c473
  c475
  c476
  c478
  c479
  c48
  c484
  c485
  c49
  c490
  c491
  c496
  c497
  c5
  c50
  c502
  c503
  c508
  c509
  c51
  c514
  c515
  c516
  c52
  c520
  c521
  c522
  c526
  c527
  c528
  c53
  c532
  c533
  c536
  c537
  c54
  c540
  c541
  c546
  c549
  c55
  c552
  c553
  c554
  c555
  c556
  c557
  c558
  c559
  c56
  c560
  c562
  c564
  c566
  c57
  c572
  c59
  c6
  c60
  c61
  c62
  c63
  c64
  c65
  c66
  c67
  c68
  c69
  c7
  c70
  c71
  c72
  c73
  c74
  c75
  c76
  c77
  c79
  c8
  c80
  c81
  c9 )
